560249
43,58,102,24,51,29,95,106,83,14,81,63,101,84,48,37,11,71,77,91,93,85,67,22,86,72,73,18,87,44,27,41,6,3,70,105,68,66,59,36,96,54,38,17,15,94,49,33,30,5,23,52,56,69,9,42,103,75,80,47,82,46,13,104,20,2,25,31,32,53,90,74,39,62,64,92,8,50,26,98,97,7,100,10,1,89,88,19,57,99,79,21,16,40,45,12,61,4,78,35,65,55,60,76,34,28